peakDumbCharging = 7400; 
Machine = anon_enum(16); 
machineSpeed = [3700,3700,3700,3700,3700,3700,3700,3700,3700,3700,3700,3700,3700,3700,3700,3700]; 
machineLoad = [3700,3700,3700,3700,3700,3700,3700,3700,3700,3700,3700,3700,3700,3700,3700,3700]; 
Car = anon_enum(7); 
demandCar = [3120,14320,11400,4000,6640,2880,11560]; 
arrivalCar = [70,67,64,62,57,44,42]; 
departureCar = [73,74,69,64,60,46,46]; 
